% demand
num_movements = 23;
loading_factor = [1200, 1200, 850, 1700, 1200, 1750, 1050, 1650, 1300, 1350, 1500, 1650, 1900, 1550, 1250, 1250, 1800, 850, 1400, 1800, 1400, 1400, 850];
pickup_time = [0, 0, 0, 0, 1, 1, 2, 3, 3, 3, 3, 5, 6, 6, 6, 7, 8, 8, 9, 10, 10, 10, 10];
delivery_time = [1, 3, 1, 2, 6, 3, 3, 4, 6, 6, 6, 8, 8, 11, 7, 9, 10, 10, 10, 11, 11, 11, 11];

% transporter definition
total_capacity = 7000;
num_decks = 3;
capacity = [3000, 1000, 3000];

% ways out of decks
num_ways_out = 1;
paths_out = array3d(decks, ways_out, decks, [
% ways out of deck d1
2, 3, 0, 

% ways out of deck d2
3, 0, 0, 

% ways out of deck d3
0, 0, 0,	

]);

